#Put Keywords Here, check Charge and Multiplicity.

 {{ molecules[0].title }}

{{ molecules[0].charge }}  {{ molecules[0].spin }}
{{ coords(molecules[0], "xyz") }}


