# {{ molecules[0].title }}

molecule {
{{ molecules[0].charge }} {{ molecules[0].spin }}
{{ xyz(molecules[0]) }}
units angstrom
}

optimize('scf')
