# {{ molecules[0].title }}
! Opt

* xyz {{ molecules[0].charge }} {{ molecules[0].spin }}
{{ coords(molecules[0], "xyz") }}
*

